data/solutions/recovery/wellformed/moderate/binding/wellformed_moderate_instance89/28.sol
Elapsed time: 0.02
Upper bound: 7998.0
Planning weighted value: 432291.0
C[0]=7998.0
C[1]=7546.0
C[2]=7247.0
C[3]=6875.0
C[4]=6849.0
C[5]=6848.0
y[0]=3
y[1]=1
y[2]=5
y[3]=1
y[4]=4
y[5]=2
y[6]=4
y[7]=3
y[8]=0
y[9]=5
y[10]=4
y[11]=4
y[12]=2
y[13]=1
y[14]=4
y[15]=1
y[16]=2
y[17]=5
y[18]=3
y[19]=2
y[20]=4
y[21]=5
y[22]=2
y[23]=3
y[24]=4
y[25]=5
y[26]=0
y[27]=2
y[28]=0
y[29]=0
y[30]=1
y[31]=3
y[32]=0
y[33]=2
y[34]=1
y[35]=5
y[36]=0
y[37]=0
y[38]=5
y[39]=0
y[40]=1
y[41]=0
